10J3M/DAT/10J3MNTA-11.dat
10 3
30.8292 950.4396
22.0882 487.8886
23.3741 546.3486
25.2308 636.5933
8.893 79.0854
22.6353 512.3568
29.2045 852.9028
25.6799 659.4573
33.1932 1101.7885
26.2276 687.887
1628.687