10J3M/SOL/10J3MNTA-11.sol
solution status: optimal solution found
objective value:                      65.690570877476
x#1#1                              0.0564820498673325 	(obj:0)
x#1#2                               0.236376103670777 	(obj:0)
x#1#3                               0.152768480705666 	(obj:0)
x#2#2                                               1 	(obj:0)
x#3#1                                0.48156545783132 	(obj:0)
x#3#3                                0.51843454216868 	(obj:0)
x#4#1                                               1 	(obj:0)
x#5#1                                 0.2004290225808 	(obj:0)
x#5#2                                 0.7995709774192 	(obj:0)
x#6#3                                               1 	(obj:0)
x#7#2                                               1 	(obj:0)
x#8#1                                               1 	(obj:0)
x#10#3                                              1 	(obj:0)
z                                     65.690570877476 	(obj:1)
